p cnf 145 341
1 0
-2 0
-3 0
-4 0
-5 0
-6 0
-7 0
-8 0
-9 0
-10 0
-11 0
1 -12 0
-1 12 0
13 14 0
12 14 0
15 14 0
-13 -12 -15 -14 0
-2 14 -16 0
2 -14 -16 0
16 -14 -2 0
2 14 16 0
-16 0
13 17 0
12 17 0
-13 -12 -17 0
-18 17 -19 0
18 -17 -19 0
19 -17 -18 0
18 17 19 0
-19 0
20 21 0
22 21 0
23 21 0
-23 -20 -22 -21 0
-3 21 -24 0
3 -21 -24 0
24 -21 -3 0
3 21 24 0
-24 0
23 25 0
20 25 0
22 25 0
-23 -20 -22 -25 0
-26 25 -27 0
26 -25 -27 0
27 -25 -26 0
26 25 27 0
-27 0
-28 25 -29 0
28 -25 -29 0
29 -25 -28 0
28 25 29 0
-29 0
23 30 0
31 30 0
20 30 0
22 30 0
-32 0
-4 30 -33 0
4 -30 -33 0
33 -30 -4 0
4 30 33 0
-33 0
34 35 0
36 35 0
37 35 0
38 35 0
-39 0
-5 35 -40 0
5 -35 -40 0
40 -35 -5 0
5 35 40 0
-40 0
36 41 0
37 41 0
38 41 0
-36 -37 -38 -41 0
-42 41 -43 0
42 -41 -43 0
43 -41 -42 0
42 41 43 0
-43 0
37 44 0
38 44 0
-37 -38 -44 0
-45 44 -46 0
45 -44 -46 0
46 -44 -45 0
45 44 46 0
-46 0
38 47 0
37 47 0
-37 -38 -47 0
-48 47 -49 0
48 -47 -49 0
49 -47 -48 0
48 47 49 0
-49 0
50 51 0
52 51 0
53 51 0
54 51 0
55 51 0
56 51 0
57 51 0
58 51 0
-59 0
-6 51 -60 0
6 -51 -60 0
60 -51 -6 0
6 51 60 0
-60 0
52 61 0
53 61 0
54 61 0
55 61 0
56 61 0
57 61 0
58 61 0
-62 0
-63 61 -64 0
63 -61 -64 0
64 -61 -63 0
63 61 64 0
-64 0
53 65 0
54 65 0
55 65 0
56 65 0
57 65 0
58 65 0
-66 0
-67 65 -68 0
67 -65 -68 0
68 -65 -67 0
67 65 68 0
-68 0
54 69 0
55 69 0
56 69 0
57 69 0
58 69 0
-70 0
-71 69 -72 0
71 -69 -72 0
72 -69 -71 0
71 69 72 0
-72 0
55 73 0
56 73 0
57 73 0
58 73 0
-74 0
-75 73 -76 0
75 -73 -76 0
76 -73 -75 0
75 73 76 0
-76 0
-77 73 -78 0
77 -73 -78 0
78 -73 -77 0
77 73 78 0
-78 0
-79 73 -80 0
79 -73 -80 0
80 -73 -79 0
79 73 80 0
-80 0
-81 73 -82 0
81 -73 -82 0
82 -73 -81 0
81 73 82 0
-82 0
55 83 0
56 83 0
57 83 0
84 83 0
58 83 0
85 83 0
-86 0
-7 83 -87 0
7 -83 -87 0
87 -83 -7 0
7 83 87 0
-87 0
55 88 0
56 88 0
57 88 0
58 88 0
85 88 0
-89 0
-90 88 -91 0
90 -88 -91 0
91 -88 -90 0
90 88 91 0
-91 0
92 93 0
94 93 0
95 93 0
96 93 0
97 93 0
98 93 0
99 93 0
-100 0
-8 93 -101 0
8 -93 -101 0
101 -93 -8 0
8 93 101 0
-101 0
94 102 0
95 102 0
96 102 0
97 102 0
98 102 0
99 102 0
-103 0
-104 102 -105 0
104 -102 -105 0
105 -102 -104 0
104 102 105 0
-105 0
95 106 0
96 106 0
97 106 0
98 106 0
99 106 0
-107 0
-108 106 -109 0
108 -106 -109 0
109 -106 -108 0
108 106 109 0
-109 0
96 110 0
97 110 0
98 110 0
99 110 0
-111 0
-112 110 -113 0
112 -110 -113 0
113 -110 -112 0
112 110 113 0
-113 0
-114 110 -115 0
114 -110 -115 0
115 -110 -114 0
114 110 115 0
-115 0
-116 110 -117 0
116 -110 -117 0
117 -110 -116 0
116 110 117 0
-117 0
-118 110 -119 0
118 -110 -119 0
119 -110 -118 0
118 110 119 0
-119 0
120 121 0
122 121 0
-122 -120 -121 0
-9 121 -123 0
9 -121 -123 0
123 -121 -9 0
9 121 123 0
-123 0
124 -122 0
-124 122 0
55 125 0
56 125 0
57 125 0
84 125 0
58 125 0
85 125 0
126 125 0
-127 0
-10 125 -128 0
10 -125 -128 0
128 -125 -10 0
10 125 128 0
-128 0
122 129 0
130 129 0
120 129 0
131 129 0
-132 0
-11 129 -133 0
11 -129 -133 0
133 -129 -11 0
11 129 133 0
-133 0
122 134 0
130 134 0
120 134 0
-122 -130 -120 -134 0
-135 134 -136 0
135 -134 -136 0
136 -134 -135 0
135 134 136 0
-136 0
12 -137 0
15 -137 0
-137 -13 0
20 -137 0
22 -137 0
-137 -23 0
-137 -31 0
-137 -34 0
-137 -36 0
-137 -37 0
38 -137 0
-137 -50 0
-137 -52 0
-137 -53 0
-137 -54 0
-137 -55 0
-137 -56 0
-137 -57 0
58 -137 0
-137 -84 0
85 -137 0
-137 -92 0
94 -137 0
-137 -95 0
-137 -96 0
-137 -97 0
98 -137 0
99 -137 0
120 -137 0
-137 -122 0
126 -137 0
131 -137 0
-137 -130 0
137 0
-138 0
-139 0
-140 0
-141 0
-142 0
-143 0
-144 0
-145 0
